c PEQNP - www.peqnp.science
c contact@peqnp.science
c pip install PEQNP
p cnf 254 979
-1 -2 -3 -4 -5 -6 -7 -8 -9 -10 0
-1 11 0
1 -11 0
11 -12 0
-11 12 0
-2 13 0
2 -13 0
-2 14 0
2 -14 0
-2 15 0
2 -15 0
13 -16 0
-13 16 0
14 -17 0
-14 17 0
15 -18 0
-15 18 0
-3 19 0
3 -19 0
-3 20 0
3 -20 0
-3 21 0
3 -21 0
19 -22 0
-19 22 0
20 -23 0
-20 23 0
21 -24 0
-21 24 0
-4 25 0
4 -25 0
-4 26 0
4 -26 0
-4 27 0
4 -27 0
-4 28 0
4 -28 0
-4 29 0
4 -29 0
-4 30 0
4 -30 0
-4 31 0
4 -31 0
25 -32 0
-25 32 0
26 -33 0
-26 33 0
27 -34 0
-27 34 0
28 -35 0
-28 35 0
29 -36 0
-29 36 0
30 -37 0
-30 37 0
31 -38 0
-31 38 0
-5 39 0
5 -39 0
-5 40 0
5 -40 0
-5 41 0
5 -41 0
-5 42 0
5 -42 0
-5 43 0
5 -43 0
-5 44 0
5 -44 0
39 -45 0
-39 45 0
40 -46 0
-40 46 0
41 -47 0
-41 47 0
42 -48 0
-42 48 0
43 -49 0
-43 49 0
44 -50 0
-44 50 0
-6 51 0
6 -51 0
-6 52 0
6 -52 0
51 -53 0
-51 53 0
52 -54 0
-52 54 0
-7 55 0
7 -55 0
-7 56 0
7 -56 0
-7 57 0
7 -57 0
-7 58 0
7 -58 0
55 -59 0
-55 59 0
56 -60 0
-56 60 0
57 -61 0
-57 61 0
58 -62 0
-58 62 0
-8 63 0
8 -63 0
-8 64 0
8 -64 0
-8 65 0
8 -65 0
-8 66 0
8 -66 0
-8 67 0
8 -67 0
-8 68 0
8 -68 0
-8 69 0
8 -69 0
63 -70 0
-63 70 0
64 -71 0
-64 71 0
65 -72 0
-65 72 0
66 -73 0
-66 73 0
67 -74 0
-67 74 0
68 -75 0
-68 75 0
69 -76 0
-69 76 0
-9 77 0
9 -77 0
-9 78 0
9 -78 0
-9 79 0
9 -79 0
-9 80 0
9 -80 0
-9 81 0
9 -81 0
-9 82 0
9 -82 0
77 -83 0
-77 83 0
78 -84 0
-78 84 0
79 -85 0
-79 85 0
80 -86 0
-80 86 0
81 -87 0
-81 87 0
82 -88 0
-82 88 0
-10 89 0
10 -89 0
-10 90 0
10 -90 0
-10 91 0
10 -91 0
-10 92 0
10 -92 0
89 -93 0
-89 93 0
90 -94 0
-90 94 0
91 -95 0
-91 95 0
92 -96 0
-92 96 0
12 -97 0
-12 97 0
12 -98 0
12 -98 0
-12 -98 0
-99 98 0
99 -98 0
16 -100 0
-16 100 0
17 -101 0
-17 101 0
18 -102 0
-18 102 0
97 -103 0
-97 103 0
97 -104 0
97 -104 0
-97 -104 0
99 -105 104 0
99 105 -104 0
-99 105 104 0
-99 -105 -104 0
99 -106 0
99 104 -106 0
-99 104 -106 0
-99 -104 106 0
-107 106 0
107 -106 0
22 -108 0
-22 108 0
23 100 -109 0
-23 100 109 0
23 -100 109 0
-23 -100 -109 0
23 100 -110 0
100 -110 0
23 -100 -110 0
-23 -100 110 0
101 -111 110 0
101 111 -110 0
-101 111 110 0
-101 -111 -110 0
101 -112 0
101 110 -112 0
-101 110 -112 0
-101 -110 112 0
102 -113 112 0
102 113 -112 0
-102 113 112 0
-102 -113 -112 0
102 -114 0
102 112 -114 0
-102 112 -114 0
-102 -112 114 0
103 -115 114 0
103 115 -114 0
-103 115 114 0
-103 -115 -114 0
103 -116 0
103 114 -116 0
-103 114 -116 0
-103 -114 116 0
24 105 -117 116 0
-24 105 -117 -116 0
-24 105 117 116 0
24 105 117 -116 0
24 -105 117 116 0
-24 -105 117 -116 0
-24 -105 -117 116 0
24 -105 -117 -116 0
24 105 -118 0
105 116 -118 0
-24 105 -116 118 0
24 -105 116 -118 0
-24 -105 118 0
-105 -116 118 0
107 -119 118 0
107 119 -118 0
-107 119 118 0
-107 -119 -118 0
107 -120 0
107 118 -120 0
-107 118 -120 0
-107 -118 120 0
-121 120 0
121 -120 0
32 -122 0
-32 122 0
108 -123 0
-108 123 0
108 -124 0
108 -124 0
-108 -124 0
33 109 -125 124 0
-33 109 -125 -124 0
-33 109 125 124 0
33 109 125 -124 0
33 -109 125 124 0
-33 -109 125 -124 0
-33 -109 -125 124 0
33 -109 -125 -124 0
33 109 -126 0
109 124 -126 0
-33 109 -124 126 0
33 -109 124 -126 0
-33 -109 126 0
-109 -124 126 0
34 111 -127 126 0
-34 111 -127 -126 0
-34 111 127 126 0
34 111 127 -126 0
34 -111 127 126 0
-34 -111 127 -126 0
-34 -111 -127 126 0
34 -111 -127 -126 0
34 111 -128 0
111 126 -128 0
-34 111 -126 128 0
34 -111 126 -128 0
-34 -111 128 0
-111 -126 128 0
35 113 -129 128 0
-35 113 -129 -128 0
-35 113 129 128 0
35 113 129 -128 0
35 -113 129 128 0
-35 -113 129 -128 0
-35 -113 -129 128 0
35 -113 -129 -128 0
35 113 -130 0
113 128 -130 0
-35 113 -128 130 0
35 -113 128 -130 0
-35 -113 130 0
-113 -128 130 0
115 -131 130 0
115 131 -130 0
-115 131 130 0
-115 -131 -130 0
115 -132 0
115 130 -132 0
-115 130 -132 0
-115 -130 132 0
36 117 -133 132 0
-36 117 -133 -132 0
-36 117 133 132 0
36 117 133 -132 0
36 -117 133 132 0
-36 -117 133 -132 0
-36 -117 -133 132 0
36 -117 -133 -132 0
36 117 -134 0
117 132 -134 0
-36 117 -132 134 0
36 -117 132 -134 0
-36 -117 134 0
-117 -132 134 0
37 119 -135 134 0
-37 119 -135 -134 0
-37 119 135 134 0
37 119 135 -134 0
37 -119 135 134 0
-37 -119 135 -134 0
-37 -119 -135 134 0
37 -119 -135 -134 0
37 119 -136 0
119 134 -136 0
-37 119 -134 136 0
37 -119 134 -136 0
-37 -119 136 0
-119 -134 136 0
121 -137 136 0
121 137 -136 0
-121 137 136 0
-121 -137 -136 0
121 -138 0
121 136 -138 0
-121 136 -138 0
-121 -136 138 0
38 -139 138 0
-38 -139 -138 0
-38 139 138 0
38 139 -138 0
38 -140 0
138 -140 0
-38 -138 140 0
-141 140 0
141 -140 0
45 122 -142 0
-45 122 142 0
45 -122 142 0
-45 -122 -142 0
45 122 -143 0
122 -143 0
45 -122 -143 0
-45 -122 143 0
123 -144 143 0
123 144 -143 0
-123 144 143 0
-123 -144 -143 0
123 -145 0
123 143 -145 0
-123 143 -145 0
-123 -143 145 0
46 125 -146 145 0
-46 125 -146 -145 0
-46 125 146 145 0
46 125 146 -145 0
46 -125 146 145 0
-46 -125 146 -145 0
-46 -125 -146 145 0
46 -125 -146 -145 0
46 125 -147 0
125 145 -147 0
-46 125 -145 147 0
46 -125 145 -147 0
-46 -125 147 0
-125 -145 147 0
47 127 -148 147 0
-47 127 -148 -147 0
-47 127 148 147 0
47 127 148 -147 0
47 -127 148 147 0
-47 -127 148 -147 0
-47 -127 -148 147 0
47 -127 -148 -147 0
47 127 -149 0
127 147 -149 0
-47 127 -147 149 0
47 -127 147 -149 0
-47 -127 149 0
-127 -147 149 0
48 129 -150 149 0
-48 129 -150 -149 0
-48 129 150 149 0
48 129 150 -149 0
48 -129 150 149 0
-48 -129 150 -149 0
-48 -129 -150 149 0
48 -129 -150 -149 0
48 129 -151 0
129 149 -151 0
-48 129 -149 151 0
48 -129 149 -151 0
-48 -129 151 0
-129 -149 151 0
131 -152 151 0
131 152 -151 0
-131 152 151 0
-131 -152 -151 0
131 -153 0
131 151 -153 0
-131 151 -153 0
-131 -151 153 0
49 133 -154 153 0
-49 133 -154 -153 0
-49 133 154 153 0
49 133 154 -153 0
49 -133 154 153 0
-49 -133 154 -153 0
-49 -133 -154 153 0
49 -133 -154 -153 0
49 133 -155 0
133 153 -155 0
-49 133 -153 155 0
49 -133 153 -155 0
-49 -133 155 0
-133 -153 155 0
50 135 -156 155 0
-50 135 -156 -155 0
-50 135 156 155 0
50 135 156 -155 0
50 -135 156 155 0
-50 -135 156 -155 0
-50 -135 -156 155 0
50 -135 -156 -155 0
50 135 -157 0
135 155 -157 0
-50 135 -155 157 0
50 -135 155 -157 0
-50 -135 157 0
-135 -155 157 0
137 -158 157 0
137 158 -157 0
-137 158 157 0
-137 -158 -157 0
137 -159 0
137 157 -159 0
-137 157 -159 0
-137 -157 159 0
139 -160 159 0
139 160 -159 0
-139 160 159 0
-139 -160 -159 0
139 -161 0
139 159 -161 0
-139 159 -161 0
-139 -159 161 0
141 -162 161 0
141 162 -161 0
-141 162 161 0
-141 -162 -161 0
-141 -161 0
142 -163 0
-142 163 0
142 -164 0
142 -164 0
-142 -164 0
144 -165 164 0
144 165 -164 0
-144 165 164 0
-144 -165 -164 0
144 -166 0
144 164 -166 0
-144 164 -166 0
-144 -164 166 0
146 -167 166 0
146 167 -166 0
-146 167 166 0
-146 -167 -166 0
146 -168 0
146 166 -168 0
-146 166 -168 0
-146 -166 168 0
148 -169 168 0
148 169 -168 0
-148 169 168 0
-148 -169 -168 0
148 -170 0
148 168 -170 0
-148 168 -170 0
-148 -168 170 0
53 150 -171 170 0
-53 150 -171 -170 0
-53 150 171 170 0
53 150 171 -170 0
53 -150 171 170 0
-53 -150 171 -170 0
-53 -150 -171 170 0
53 -150 -171 -170 0
53 150 -172 0
150 170 -172 0
-53 150 -170 172 0
53 -150 170 -172 0
-53 -150 172 0
-150 -170 172 0
152 -173 172 0
152 173 -172 0
-152 173 172 0
-152 -173 -172 0
152 -174 0
152 172 -174 0
-152 172 -174 0
-152 -172 174 0
154 -175 174 0
154 175 -174 0
-154 175 174 0
-154 -175 -174 0
154 -176 0
154 174 -176 0
-154 174 -176 0
-154 -174 176 0
156 -177 176 0
156 177 -176 0
-156 177 176 0
-156 -177 -176 0
156 -178 0
156 176 -178 0
-156 176 -178 0
-156 -176 178 0
54 158 -179 178 0
-54 158 -179 -178 0
-54 158 179 178 0
54 158 179 -178 0
54 -158 179 178 0
-54 -158 179 -178 0
-54 -158 -179 178 0
54 -158 -179 -178 0
54 158 -180 0
158 178 -180 0
-54 158 -178 180 0
54 -158 178 -180 0
-54 -158 180 0
-158 -178 180 0
160 -181 180 0
160 181 -180 0
-160 181 180 0
-160 -181 -180 0
160 -182 0
160 180 -182 0
-160 180 -182 0
-160 -180 182 0
162 -183 182 0
162 183 -182 0
-162 183 182 0
-162 -183 -182 0
-162 -182 0
163 -184 0
-163 184 0
163 -185 0
163 -185 0
-163 -185 0
165 -186 185 0
165 186 -185 0
-165 186 185 0
-165 -186 -185 0
165 -187 0
165 185 -187 0
-165 185 -187 0
-165 -185 187 0
59 167 -188 187 0
-59 167 -188 -187 0
-59 167 188 187 0
59 167 188 -187 0
59 -167 188 187 0
-59 -167 188 -187 0
-59 -167 -188 187 0
59 -167 -188 -187 0
59 167 -189 0
167 187 -189 0
-59 167 -187 189 0
59 -167 187 -189 0
-59 -167 189 0
-167 -187 189 0
169 -190 189 0
169 190 -189 0
-169 190 189 0
-169 -190 -189 0
169 -191 0
169 189 -191 0
-169 189 -191 0
-169 -189 191 0
60 171 -192 191 0
-60 171 -192 -191 0
-60 171 192 191 0
60 171 192 -191 0
60 -171 192 191 0
-60 -171 192 -191 0
-60 -171 -192 191 0
60 -171 -192 -191 0
60 171 -193 0
171 191 -193 0
-60 171 -191 193 0
60 -171 191 -193 0
-60 -171 193 0
-171 -191 193 0
61 173 -194 193 0
-61 173 -194 -193 0
-61 173 194 193 0
61 173 194 -193 0
61 -173 194 193 0
-61 -173 194 -193 0
-61 -173 -194 193 0
61 -173 -194 -193 0
61 173 -195 0
173 193 -195 0
-61 173 -193 195 0
61 -173 193 -195 0
-61 -173 195 0
-173 -193 195 0
62 175 -196 195 0
-62 175 -196 -195 0
-62 175 196 195 0
62 175 196 -195 0
62 -175 196 195 0
-62 -175 196 -195 0
-62 -175 -196 195 0
62 -175 -196 -195 0
62 175 -197 0
175 195 -197 0
-62 175 -195 197 0
62 -175 195 -197 0
-62 -175 197 0
-175 -195 197 0
177 -198 197 0
177 198 -197 0
-177 198 197 0
-177 -198 -197 0
177 -199 0
177 197 -199 0
-177 197 -199 0
-177 -197 199 0
179 -200 199 0
179 200 -199 0
-179 200 199 0
-179 -200 -199 0
179 -201 0
179 199 -201 0
-179 199 -201 0
-179 -199 201 0
181 -202 201 0
181 202 -201 0
-181 202 201 0
-181 -202 -201 0
181 -203 0
181 201 -203 0
-181 201 -203 0
-181 -201 203 0
183 -204 203 0
183 204 -203 0
-183 204 203 0
-183 -204 -203 0
-183 -203 0
70 184 -205 0
-70 184 205 0
70 -184 205 0
-70 -184 -205 0
70 184 -206 0
184 -206 0
70 -184 -206 0
-70 -184 206 0
186 -207 206 0
186 207 -206 0
-186 207 206 0
-186 -207 -206 0
186 -208 0
186 206 -208 0
-186 206 -208 0
-186 -206 208 0
71 188 -209 208 0
-71 188 -209 -208 0
-71 188 209 208 0
71 188 209 -208 0
71 -188 209 208 0
-71 -188 209 -208 0
-71 -188 -209 208 0
71 -188 -209 -208 0
71 188 -210 0
188 208 -210 0
-71 188 -208 210 0
71 -188 208 -210 0
-71 -188 210 0
-188 -208 210 0
72 190 -211 210 0
-72 190 -211 -210 0
-72 190 211 210 0
72 190 211 -210 0
72 -190 211 210 0
-72 -190 211 -210 0
-72 -190 -211 210 0
72 -190 -211 -210 0
72 190 -212 0
190 210 -212 0
-72 190 -210 212 0
72 -190 210 -212 0
-72 -190 212 0
-190 -210 212 0
192 -213 212 0
192 213 -212 0
-192 213 212 0
-192 -213 -212 0
192 -214 0
192 212 -214 0
-192 212 -214 0
-192 -212 214 0
194 -215 214 0
194 215 -214 0
-194 215 214 0
-194 -215 -214 0
194 -216 0
194 214 -216 0
-194 214 -216 0
-194 -214 216 0
73 196 -217 216 0
-73 196 -217 -216 0
-73 196 217 216 0
73 196 217 -216 0
73 -196 217 216 0
-73 -196 217 -216 0
-73 -196 -217 216 0
73 -196 -217 -216 0
73 196 -218 0
196 216 -218 0
-73 196 -216 218 0
73 -196 216 -218 0
-73 -196 218 0
-196 -216 218 0
74 198 -219 218 0
-74 198 -219 -218 0
-74 198 219 218 0
74 198 219 -218 0
74 -198 219 218 0
-74 -198 219 -218 0
-74 -198 -219 218 0
74 -198 -219 -218 0
74 198 -220 0
198 218 -220 0
-74 198 -218 220 0
74 -198 218 -220 0
-74 -198 220 0
-198 -218 220 0
75 200 -221 220 0
-75 200 -221 -220 0
-75 200 221 220 0
75 200 221 -220 0
75 -200 221 220 0
-75 -200 221 -220 0
-75 -200 -221 220 0
75 -200 -221 -220 0
75 200 -222 0
200 220 -222 0
-75 200 -220 222 0
75 -200 220 -222 0
-75 -200 222 0
-200 -220 222 0
76 202 -223 222 0
-76 202 -223 -222 0
-76 202 223 222 0
76 202 223 -222 0
76 -202 223 222 0
-76 -202 223 -222 0
-76 -202 -223 222 0
76 -202 -223 -222 0
76 202 -224 0
202 222 -224 0
-76 202 -222 224 0
76 -202 222 -224 0
-76 -202 224 0
-202 -222 224 0
204 -225 224 0
204 225 -224 0
-204 225 224 0
-204 -225 -224 0
-204 -224 0
-83 205 0
83 -205 0
83 205 -226 0
205 -226 0
83 -205 -226 0
-83 -205 226 0
84 207 -227 226 0
-84 207 -227 -226 0
-84 207 227 226 0
84 207 227 -226 0
84 -207 227 226 0
-84 -207 227 -226 0
-84 -207 -227 226 0
84 -207 -227 -226 0
84 207 -228 0
207 226 -228 0
-84 207 -226 228 0
84 -207 226 -228 0
-84 -207 228 0
-207 -226 228 0
209 -229 228 0
209 229 -228 0
-209 229 228 0
-209 -229 -228 0
209 -230 0
209 228 -230 0
-209 228 -230 0
-209 -228 230 0
85 211 -231 230 0
-85 211 -231 -230 0
-85 211 231 230 0
85 211 231 -230 0
85 -211 231 230 0
-85 -211 231 -230 0
-85 -211 -231 230 0
85 -211 -231 -230 0
85 211 -232 0
211 230 -232 0
-85 211 -230 232 0
85 -211 230 -232 0
-85 -211 232 0
-211 -230 232 0
86 213 -233 232 0
-86 213 -233 -232 0
-86 213 233 232 0
86 213 233 -232 0
86 -213 233 232 0
-86 -213 233 -232 0
-86 -213 -233 232 0
86 -213 -233 -232 0
86 213 -234 0
213 232 -234 0
-86 213 -232 234 0
86 -213 232 -234 0
-86 -213 234 0
-213 -232 234 0
215 -235 234 0
215 235 -234 0
-215 235 234 0
-215 -235 -234 0
215 -236 0
215 234 -236 0
-215 234 -236 0
-215 -234 236 0
87 217 -237 236 0
-87 217 -237 -236 0
-87 217 237 236 0
87 217 237 -236 0
87 -217 237 236 0
-87 -217 237 -236 0
-87 -217 -237 236 0
87 -217 -237 -236 0
87 217 -238 0
217 236 -238 0
-87 217 -236 238 0
87 -217 236 -238 0
-87 -217 238 0
-217 -236 238 0
219 -239 238 0
219 239 -238 0
-219 239 238 0
-219 -239 -238 0
219 -240 0
219 238 -240 0
-219 238 -240 0
-219 -238 240 0
221 -241 240 0
221 241 -240 0
-221 241 240 0
-221 -241 -240 0
221 -242 0
221 240 -242 0
-221 240 -242 0
-221 -240 242 0
88 223 -243 242 0
-88 223 -243 -242 0
-88 223 243 242 0
88 223 243 -242 0
88 -223 243 242 0
-88 -223 243 -242 0
-88 -223 -243 242 0
88 -223 -243 -242 0
88 223 -244 0
223 242 -244 0
-88 223 -242 244 0
88 -223 242 -244 0
-88 -223 244 0
-223 -242 244 0
225 -245 244 0
225 245 -244 0
-225 245 244 0
-225 -245 -244 0
-225 -244 0
93 227 0
-93 -227 0
93 227 -246 0
227 -246 0
93 -227 -246 0
-93 -227 246 0
229 -246 0
-229 246 0
229 -247 0
229 246 -247 0
-229 246 -247 0
-229 -246 247 0
231 247 0
-231 -247 0
231 -248 0
231 247 -248 0
-231 247 -248 0
-231 -247 248 0
94 233 248 0
-94 233 -248 0
-94 -233 248 0
94 -233 -248 0
94 233 -249 0
233 248 -249 0
-94 233 -248 249 0
94 -233 248 -249 0
-94 -233 249 0
-233 -248 249 0
235 -249 0
-235 249 0
235 -250 0
235 249 -250 0
-235 249 -250 0
-235 -249 250 0
-95 237 250 0
95 237 -250 0
95 -237 250 0
-95 -237 -250 0
95 237 -251 0
237 250 -251 0
-95 237 -250 251 0
95 -237 250 -251 0
-95 -237 251 0
-237 -250 251 0
239 251 0
-239 -251 0
239 -252 0
239 251 -252 0
-239 251 -252 0
-239 -251 252 0
241 252 0
-241 -252 0
241 -253 0
241 252 -253 0
-241 252 -253 0
-241 -252 253 0
96 243 253 0
-96 243 -253 0
-96 -243 253 0
96 -243 -253 0
96 243 -254 0
243 253 -254 0
-96 243 -253 254 0
96 -243 253 -254 0
-96 -243 254 0
-243 -253 254 0
245 254 0
-245 -254 0
-245 -254 0
c [-1, -2, 3, 4, -5, -6, 7, -8, 9, 10, -11, -12, -13, -14, -15, -16, -17, -18, -19, -20, -21, -22, -23, -24, -25, -26, -27, -28, -29, -30, -31, -32, -33, -34, -35, -36, -37, -38, -39, -40, -41, -42, -43, -44, -45, -46, -47, -48, -49, 50, -51, -52, -53, -54, -55, -56, -57, -58, -59, -60, -61, -62, -63, -64, -65, -66, -67, -68, -69, -70, -71, -72, -73, -74, -75, -76, -77, -78, -79, -80, -81, -82, -83, -84, -85, -86, -87, -88, -89, -90, 91, 92, 93, -94, -95, -96, -97, -98, -99, -100, -101, -102, -103, -104, -105, -106, -107, -108, -109, -110, -111, -112, 113, 114, 115, -116, -117, -118, -119, -120, -121, -122, -123, 124, 125, 126, -127, -128, -129, -130, -131, -132, -133, 134, 135, -136, -137, -138, 139, -140, -141, -142, -143, -144, -145, -146, -147, -148, -149, -150, -151, -152, -153, -154, -155, 156, 157, -158, -159, -160, 161, -162, -163, -164, -165, -166, 167, 168, -169, -170, -171, 172, -173, -174, -175, -176, 177, -178, 179, 180, 181, -182, 183, 184, -185, 186, -187, -188, -189, -190, -191, -192, -193, -194, -195, -196, -197, -198, -199, -200, -201, -202, -203, -204, -205, -206, -207, -208, -209, -210, -211, -212, -213, -214, -215, -216, -217, -218, -219, -220, 221, -222, 223, 224, 225, -226, 227, 228, -229, -230, -231, -232, -233, -234, -235, -236, -237, -238, -239, -240, -241, -242, -243, -244, -245, -246, -247, -248, -249, -250, -251, -252, -253, -254, -255, -256, -257, -258, -259, -260, -261, -262, -263, -264, -265, -266, -267, -268, 269, -270, -271, -272, 273, -274, -275, -276, -277, -278, -279, -280, -281, -282, -283, -284, -285, -286, -287, -288, -289, -290, 291, -292, -293, -294, 295, -296, -297, -298, -299, -300, -301, 302, -303, -304, -305, 306, -307, -308, -309, -310, 311, -312, 313, 314, 315, -316, -317, -318, -319, -320, -321, -322, -323, -324, -325, -326, -327, -328, -329, -330, -331, -332, -333, -334, -335, -336, -337, -338, -339, -340, -341, -342, -343, -344, -345, -346, -347, -348, -349, -350, -351, -352, 353, -354, 355, 356, -357, -358, 359, 360, 361, 362, -363, -364, -365, -366, -367, -368, -369, -370, -371, -372, -373, -374, 375, -376, 377, 378, -379, -380, 381, 382, 383, 384, -385, 386, -387, 388, 389, -390, -391, 392, 393, 394, 395, -396, 397, 398, -399, 400, 401, -402, 403, -404, -405, 406, -407, -408, -409, -410, -411, -412, -413, -414, -415, -416, -417, -418, 419, 420, -421, 422, 423, -424, 425, -426, -427, 428, -429, 430, 431, -432, 433, 434, -435, 436, -437, -438, 439, -440, -441, 442, -443, -444, 445, -446, 447, -448, -449, 450, -451, -452, -453, -454, -455, -456, -457, -458, -459, -460, -461, -462, -463, -464, -465, -466, -467, -468, -469, -470, -471, -472, -473, -474, -475, -476, -477, -478, -479, -480, -481, -482, -483, -484, -485, -486, -487, -488, -489, -490, -491, -492, -493, -494, -495, -496, -497, -498, -499, -500, -501, -502, -503, -504, -505, -506, -507, 508, 509, 510, -511, -512, -513, -514, -515, -516, -517, -518, -519, -520, -521, -522, -523, -524, -525, -526, -527, 528, -529, -530, -531, 532, 533, -534, -535, -536, -537, -538, -539, 540, 541, 542, -543, -544, -545, -546, -547, -548, 549, -550, -551, -552, 553, 554, -555, -556, -557, -558, -559, -560, -561, -562, -563, -564, -565, -566, -567, -568, -569, 570, -571, -572, -573, 574, 575, -576, -577, -578, -579, -580, -581, -582, -583, -584, -585, -586, -587, -588, -589, -590, 591, -592, -593, 594, 595, 596, -597, 598, -599, -600, -601, -602, -603, -604, -605, -606, -607, -608, -609, -610, -611, 612, -613, -614, 615, 616, 617, -618, 619, -620, -621, -622, -623, -624, -625, -626, -627, -628, -629, -630, -631, 632, 633, 634, 635, 636, 637, -638, -639, 640, -641, 642, -643, -644, -645, -646, -647, -648, 649, 650, 651, 652, -653, 654, -655, 656, 657, -658, -659, 660, 661, 662, 663, 664, 665, 666, 667, 668, 669, 670, -671, -672, -673, -674, 675, -676, 677, 678, -679, -680, 681, 682, 683, 684, -685, -686, -687, -688, -689, -690, -691, -692, -693, -694, -695, 696, -697, 698, 699, -700, -701, 702, 703, 704, 705, -706, -707, -708, -709, -710, -711, -712, -713, -714, -715, -716]
